GLPSOL--GLPK LP/MIP Solver 5.0
Parameter(s) specified in the command line:
 --lp ../modeles/3_449.lp --log 3_449.log
Reading problem data from '../modeles/3_449.lp'...
1360 rows, 2700 columns, 9444 non-zeros
1347 integer variables, all of which are binary
4069 lines were read
GLPK Integer Optimizer 5.0
1360 rows, 2700 columns, 9444 non-zeros
1347 integer variables, all of which are binary
Preprocessing...
1338 constraint coefficient(s) were reduced
1360 rows, 2697 columns, 9441 non-zeros
1347 integer variables, all of which are binary
Scaling...
 A: min|aij| =  1.984e-05  max|aij| =  4.000e+00  ratio =  2.016e+05
GM: min|aij| =  4.719e-02  max|aij| =  2.119e+01  ratio =  4.490e+02
EQ: min|aij| =  2.227e-03  max|aij| =  1.000e+00  ratio =  4.490e+02
2N: min|aij| =  1.953e-03  max|aij| =  1.775e+00  ratio =  9.089e+02
Constructing initial basis...
Size of triangular part is 1360
Solving LP relaxation...
GLPK Simplex Optimizer 5.0
1360 rows, 2697 columns, 9441 non-zeros
      0: obj =   6.000000000e+00 inf =   1.450e+01 (7)
     68: obj =   4.999727183e-01 inf =   0.000e+00 (0)
*   231: obj =  -1.732007024e+00 inf =   1.054e-15 (0)
OPTIMAL LP SOLUTION FOUND
Integer optimization begins...
Long-step dual simplex will be used
+   231: mip =     not found yet >=              -inf        (1; 0)
+  1008: >>>>>  -1.732007024e+00 >=  -1.732007024e+00 < 0.1% (775; 0)
+  1008: mip =  -1.732007024e+00 >=     tree is empty   0.0% (0; 1549)
INTEGER OPTIMAL SOLUTION FOUND
Time used:   1.3 secs
Memory used: 4.0 Mb (4191927 bytes)
